###############################################################################
# MD simulation for NN water
###############################################################################

###############################################################################
# VARIABLES
###############################################################################
clear
# Configuration files
variable cfgFile         string "data.H2O-360mol"
# Timesteps
variable numSteps        equal  1000000
variable dt              equal  0.001
# NN
variable nnpCutoff       equal  6.36
variable nnpDir          string "nnp-data"
# Masses
variable mass_H          equal  1.00794
variable mass_O          equal  15.9994

###############################################################################
# GENERAL SETUP
###############################################################################
units metal
boundary p p p
atom_style atomic
read_data ${cfgFile}
mass 1 ${mass_H}
mass 2 ${mass_O}
timestep ${dt}
thermo 1

###############################################################################
# NN
###############################################################################
pair_style hdnnp 6.36 dir "nnp-data" showew no showewsum 10000 resetew yes maxew 1000000 cflength 1.8897261328 cfenergy 0.0367493254
pair_coeff * * H O

###############################################################################
# INTEGRATOR
###############################################################################
fix INT all npt temp 298.0 298.0 0.1 iso 1.0 1.0 1
dump 1 all atom 10 traj.dmp

###############################################################################
# SIMULATION
###############################################################################
run ${numSteps}

